%mem=150MW
%CPU= 7,12,13,24,25,39,44,45,56,57
# opt 6-311++g(d,p) nosymm geom=connectivity emp=gd3 m062x

Title Card Required

0 1
 C                 -1.97157500    0.31242900   -0.24186300
 C                 -0.69373000    0.18488000   -0.66009300
 C                  0.18627800    1.31796300   -0.67195700
 C                 -0.36543000    2.57422700   -0.22016700
 C                 -1.65586000    2.71303500    0.20453300
 C                 -2.55617900    1.57998100    0.22310700
 H                  1.90959100    0.33370600   -1.41976200
 H                 -2.64838300   -0.53403900   -0.22694600
 H                 -0.30569600   -0.77112300   -0.99452300
 C                  1.49611300    1.27759000   -1.08027800
 C                  1.76463000    3.61096000   -0.63473000
 C                  2.31127000    2.43460600   -1.06707100
 H                  2.31878700    4.53921300   -0.59377700
 H                  3.34168900    2.40459400   -1.38756600
 N                  0.48003300    3.67108600   -0.23016700
 O                 -2.01907900    3.97531400    0.60007500
 O                 -3.72980600    1.65072200    0.59727700
 H                  0.07742900    4.54384500    0.08913700
 H                 -2.93846400    4.00464500    0.88507200

 1 2 2.0 6 1.0 8 1.0
 2 3 1.5 9 1.0
 3 4 1.5 10 2.0
 4 5 2.0 15 1.0
 5 6 1.5 16 1.0
 6 17 2.0
 7 10 1.0
 8
 9
 10 12 1.5
 11 12 2.0 13 1.0 15 1.5
 12 14 1.0
 13
 14
 15 18 1.0
 16 19 1.0
 17
 18
 19