%CPU= 0-3,16-19,32-35,48-51
%mem=200MW
# opt=modredundant 6-31++g(d,p) nosymm geom=connectivity m062x

8hq scan

0 1
 C                 -1.29782000   -0.73952600    0.01147600
 C                  0.07545100   -0.79316800    0.01163700
 C                  0.82255300    0.41318800    0.01136500
 C                  0.13993800    1.65621800    0.01093400
 C                 -1.28836100    1.67284100    0.01077900
 C                 -1.99180900    0.49322700    0.01104600
 H                  2.81028000   -0.45446300    0.01180300
 H                 -1.87314400   -1.65997000    0.01167900
 H                  0.59944200   -1.74403600    0.01197300
 C                  2.23973400    0.47071900    0.01148800
 H                 -3.07566700    0.52479700    0.01091500
 C                  2.08069700    2.86876900    0.01079800
 C                  2.86860600    1.68964200    0.01120300
 H                  2.56246000    3.84411400    0.01054200
 H                  3.95032800    1.76705500    0.01128100
 N                  0.76769200    2.86208500    0.01065600
 O                 -1.92532000    2.86033400    0.01034600
 H                 -1.35164000    3.48754300    0.01021000

 1 2 2.0 6 1.5 8 1.0
 2 3 1.5 9 1.0
 3 4 1.5 10 1.5
 4 5 1.5 16 1.5
 5 6 2.0 17 1.0
 6 11 1.0
 7 10 1.0
 8
 9
 10 13 2.0
 11
 12 13 1.5 14 1.0 16 2.0
 13 15 1.0
 14
 15
 16
 17 18 1.0
 18

B 17 18 0.850000 S 29 0.050000

